
Gurobi 6.5.2 (win64) logging started 07/22/16 21:53:48


Gurobi 6.5.2 (win64) logging started 07/22/16 21:53:48

Optimize a model with 2055 rows, 265 columns and 4663 nonzeros
Coefficient statistics:
  Matrix range    [1e+00, 5e+02]
  Objective range [2e+00, 5e+02]
  Bounds range    [1e+00, 1e+00]
  RHS range       [1e+00, 2e+03]
Presolve removed 1941 rows and 49 columns
Presolve time: 0.00s
Presolved: 114 rows, 216 columns, 991 nonzeros
Variable types: 0 continuous, 216 integer (216 binary)

Root relaxation: objective 1.944000e+03, 95 iterations, 0.00 seconds

    Nodes    |    Current Node    |     Objective Bounds      |     Work
 Expl Unexpl |  Obj  Depth IntInf | Incumbent    BestBd   Gap | It/Node Time

*    0     0               0    1944.0000000 1944.00000  0.00%     -    0s

Explored 0 nodes (95 simplex iterations) in 0.02 seconds
Thread count was 8 (of 8 available processors)

Optimal solution found (tolerance 1.00e-04)
Best objective 1.944000000000e+03, best bound 1.944000000000e+03, gap 0.0%

Wrote requested result file 'H1\instance24\\Results24SG_Sol5.lp'

